
&CONTROL
etot_conv_thr =  1d-05
forc_conv_thr =  1d-04
prefix        = 'pw'
calculation   = 'vc-relax'
outdir        = './outdir'
pseudo_dir    = '../pseudos/'
tprnfor       = .true.
tstress       = .true.
/
&SYSTEM
  degauss     = 0.03
  ecutwfc     = 100
  ecutrho     = 800
  ibrav       = 0
  nat         = 3
  ntyp        = 2
  occupations = 'smearing'
  smearing    = 'fd'
/
&ELECTRONS
  conv_thr    =  1d-08
  mixing_mode = 'local-TF'
/
&IONS
/
&CELL
/   
ATOMIC_SPECIES 
Nb 92.90 Nb.pbe-spn-rrkjus_psl.1.0.0.UPF
Se 78.96 Se.pbe-mt_fhi.UPF
ATOMIC_POSITIONS (crystal) 
Nb 0.0 0.0 0.5
Se 0.3333333333 0.6666666667 0.37918167810000003
Se 0.3333333333 0.6666666667 0.6208183219000001
CELL_PARAMETERS (angstrom) 
3.480906719 -0.0 0.0
-1.74045336 3.014553647 -0.0
0.0 -0.0 13.95385103
K_POINTS automatic 
20 20 10 0 0 0
