
&CONTROL
etot_conv_thr =  1d-05
forc_conv_thr =  1d-04
prefix        = 'pw'
calculation   = 'vc-relax'
outdir        = './outdir'
pseudo_dir    = '../pseudos/'
tprnfor       = .true.
tstress       = .true.
/
&SYSTEM
  degauss     = 0.05
  ecutwfc     = 100
  ecutrho     = 800
  ibrav       = 0
  nat         = 6
  ntyp        = 2
  occupations = 'smearing'
  smearing    = 'fd'
/
&ELECTRONS
  conv_thr    =  1d-08
  mixing_mode = 'local-TF'
/
&IONS
/
&CELL
/   
ATOMIC_SPECIES 
Nb 92.90 Nb.pbe-spn-rrkjus_psl.1.0.0.UPF
Se 78.96 Se.pbe-mt_fhi.UPF
ATOMIC_POSITIONS (crystal) 
Nb 0.000000 0.000000 0.250000
Nb 0.000000 0.000000 0.750000
Se 0.666667 0.333333 0.627592
Se 0.333333 0.666667 0.127592
Se 0.666667 0.333333 0.872408
Se 0.333333 0.666667 0.372408
CELL_PARAMETERS (angstrom) 
1.744702 -3.021912 0.000000
1.744702 3.021912 0.000000
0.000000 0.000000 13.756999
K_POINTS automatic 
20 20 10 0 0 0
